17 65 
76 69 
38 66 
52 27 
18 13 
42 63 
3 91 
38 86 
45 62 
68 6 
48 36 
32 30 
23 35 
42 68 
33 12 
48 50 
77 24 
71 15 
90 23 
43 60 
88 85 
23 91 
28 62 
29 73 
24 50 
31 72 
38 63 
54 61 
99 49 
82 84 
61 30 
35 91 
6 58 
6 48 
82 1 
8 22 
38 31 
66 67 
45 47 
40 21 
97 72 
46 88 
87 0 
1 86 
1 83 
23 63 
65 10 
6 23 
68 12 
71 2 
